12 40 3 10
4 11 17 12 16 4 2 19 17 19 8 5 7 18 14 12 10 12 16 7 19 20 10 8 16 13 20 4 7 5 14 20 19 4 13 11 1 12 5 4 
1.92 0.26 7.52 3.8 1.18 3.27 1.24 4.13 5.97 3.02 5.2 6.51 5.82 5 0.12 0.47 7.2 6.76 1.36 4.17 1.1 1.92 6.11 7.47 2.42 5.7 0.29 5.83 4.62 0.71 7.53 3.29 0.09 0.48 5.74 1.8 1.04 5.45 5.94 7.77 
0.62 3.66 2.25 5.11 2.63 6.18 6.14 6.02 0.65 7.46 1.26 5.76 2.04 3.04 4.29 1.45 3.77 0.22 1.52 7.42 7.79 2.75 7.8 3.1 4.93 3.67 0.22 2.84 6.89 2.32 3.58 1.66 3.53 0.43 0.89 4.7 7.94 4.69 7.29 5.27 
5.61 6.2 6.16 2.16 0.03 4.49 4.92 2.97 0.39 6.07 7.5 0.52 5.04 5.75 0.19 4.54 4.04 5.22 6.26 0.7 3.74 5.88 4.92 7.14 4.52 4.97 4.64 2.56 4.99 2.67 1.45 0.56 2.85 5.58 1.79 5.8 5.02 2.35 5.48 6.7 
4 4 4 4 4 4 4 4 4 4 4 4 4 4 4 4 4 4 4 4 4 4 4 4 4 4 4 4 4 4 4 4 4 4 4 4 4 4 4 4 
0.43 4.36 5.06 5.25 0.21 4.92 6.56 3.19 2.59 4.8 7.81 7.72 0.94 2.77 4.48 4.26 0.41 6.55 5.69 5.41 6.57 4.33 3.53 0.94 2.79 6.66 3 3.68 1.65 7.41 4.11 4.04 0.95 3.34 4.61 6.16 6.54 5.65 7.27 3.85 
1.09 0.44 6.47 3.4 3.79 0.38 6.56 3.11 7.29 6.56 1.42 2.08 7.38 6.83 6.97 7.07 1.17 4.84 0.95 0.9 5.85 2.75 3.7 4.31 0.08 1.57 3.2 3.27 7.16 1.78 3.59 2.73 2.92 3.23 7.29 3.51 7.69 5.72 1.7 6.42 
4.28 3.88 7.08 1.21 1.66 2.62 4.04 3.48 6.41 0.49 0.74 4.05 4.99 4.75 5.64 2.36 7.3 0.52 7.57 7.88 1.08 6.72 0.74 7.49 3.5 7.96 4.31 3.42 1.28 4.78 5.52 0.11 7.57 3.2 4.82 0.38 3.21 2.99 5.36 7.2 
0.48 1.24 1.98 5.73 1.27 5.57 5.75 1.76 5.67 6 7.98 1.49 6.68 2.49 7.38 2.52 2.38 5.82 2.3 6.63 6.96 1.06 4.08 5.13 4.69 4.27 5.31 5.29 3.4 0.51 1.18 6.27 0.95 6.19 2.6 0.03 2.66 2.26 2.15 1.13 
0.66 7.53 1.89 4.83 5.73 5.65 7.37 7.68 1.46 2.19 4.91 2.24 5.75 5.43 2.23 4.92 2.04 4.91 4 0.47 7.05 4.62 6.11 4.77 6.33 3.25 1.5 3.12 3.57 3.04 1.6 0.38 6.05 0.38 0.76 3.15 5.95 6.12 6.59 0.99 
2.49 4.7 3.37 0.56 0.65 3.68 6.64 2.03 4.61 3.67 6.78 7.68 0.19 6.91 2.64 2.95 3.38 6.83 1.57 0.21 5.72 3.58 4.94 7 7.77 6.95 1.95 4.38 3.79 7.1 1.55 7.18 3.33 0.43 7.37 4.83 4.3 5.81 6.97 4.38 
5.35 7.65 1.13 4.96 5.9 1.08 6.27 6.85 0.59 5.17 3.05 2.35 6.04 7.41 6.41 1.94 3.87 7.3 3.9 2.93 2.6 5.79 1.23 6.97 2.13 7.85 3.79 3.77 6.02 5.02 3.71 4.82 0.01 2.9 3.32 5.69 4.91 4.1 1.46 3.44 
1.98 3.49 0.58 6.52 0.04 6.62 6.58 0.64 6.68 4.64 4.51 1.94 6.43 0.43 6.68 4.05 2.26 0.09 0.73 2.91 2.83 2.43 7.14 4.22 7.01 1.41 7.25 6.99 4.24 6.4 0.06 1.83 7.24 7.94 3.51 2.46 3.55 0.3 4.24 3.69 
1 1 1 1 1 1 1 1 1 1 1 1 1 1 1 1 1 1 1 1 1 1 1 1 1 1 1 1 1 1 1 1 1 1 1 1 1 1 1 1 
1 1 1 1 1 1 1 1 1 1 1 1 1 1 1 1 1 1 1 1 1 1 1 1 1 1 1 1 1 1 1 1 1 1 1 1 1 1 1 1 
1 1 1 1 1 1 1 1 1 1 1 1 1 1 1 1 1 1 1 1 1 1 1 1 1 1 1 1 1 1 1 1 1 1 1 1 1 1 1 1 
1 1 1 1 1 1 1 1 1 1 1 1 1 1 1 1 1 1 1 1 1 1 1 1 1 1 1 1 1 1 1 1 1 1 1 1 1 1 1 1 
1 1 1 1 1 1 1 1 1 1 1 1 1 1 1 1 1 1 1 1 1 1 1 1 1 1 1 1 1 1 1 1 1 1 1 1 1 1 1 1 
1 1 1 1 1 1 1 1 1 1 1 1 1 1 1 1 1 1 1 1 1 1 1 1 1 1 1 1 1 1 1 1 1 1 1 1 1 1 1 1 
1 1 1 1 1 1 1 1 1 1 1 1 1 1 1 1 1 1 1 1 1 1 1 1 1 1 1 1 1 1 1 1 1 1 1 1 1 1 1 1 
1 1 1 1 1 1 1 1 1 1 1 1 1 1 1 1 1 1 1 1 1 1 1 1 1 1 1 1 1 1 1 1 1 1 1 1 1 1 1 1 
1 1 1 1 1 1 1 1 1 1 1 1 1 1 1 1 1 1 1 1 1 1 1 1 1 1 1 1 1 1 1 1 1 1 1 1 1 1 1 1 
1 1 1 1 1 1 1 1 1 1 1 1 1 1 1 1 1 1 1 1 1 1 1 1 1 1 1 1 1 1 1 1 1 1 1 1 1 1 1 1 
1 1 1 1 1 1 1 1 1 1 1 1 1 1 1 1 1 1 1 1 1 1 1 1 1 1 1 1 1 1 1 1 1 1 1 1 1 1 1 1 
1 1 1 1 1 1 1 1 1 1 1 1 1 1 1 1 1 1 1 1 1 1 1 1 1 1 1 1 1 1 1 1 1 1 1 1 1 1 1 1 
0.01 0.01 0.01 0.01 0.01 0.01 0.01 0.01 0.01 0.01 0.01 0.01 0.01 0.01 0.01 0.01 0.01 0.01 0.01 0.01 0.01 0.01 0.01 0.01 0.01 0.01 0.01 0.01 0.01 0.01 0.01 0.01 0.01 0.01 0.01 0.01 0.01 0.01 0.01 0.01 
0.02 0.02 0.02 0.02 0.02 0.02 0.02 0.02 0.02 0.02 0.02 0.02 0.02 0.02 0.02 0.02 0.02 0.02 0.02 0.02 0.02 0.02 0.02 0.02 0.02 0.02 0.02 0.02 0.02 0.02 0.02 0.02 0.02 0.02 0.02 0.02 0.02 0.02 0.02 0.02 
0.03 0.03 0.03 0.03 0.03 0.03 0.03 0.03 0.03 0.03 0.03 0.03 0.03 0.03 0.03 0.03 0.03 0.03 0.03 0.03 0.03 0.03 0.03 0.03 0.03 0.03 0.03 0.03 0.03 0.03 0.03 0.03 0.03 0.03 0.03 0.03 0.03 0.03 0.03 0.03 
0.04 0.04 0.04 0.04 0.04 0.04 0.04 0.04 0.04 0.04 0.04 0.04 0.04 0.04 0.04 0.04 0.04 0.04 0.04 0.04 0.04 0.04 0.04 0.04 0.04 0.04 0.04 0.04 0.04 0.04 0.04 0.04 0.04 0.04 0.04 0.04 0.04 0.04 0.04 0.04 
0.125 0.125 0.125 0.125 0.125 0.125 0.125 0.125 0.125 0.125 0.125 0.125 0.125 0.125 0.125 0.125 0.125 0.125 0.125 0.125 0.125 0.125 0.125 0.125 0.125 0.125 0.125 0.125 0.125 0.125 0.125 0.125 0.125 0.125 0.125 0.125 0.125 0.125 0.125 0.125 
0.25 0.25 0.25 0.25 0.25 0.25 0.25 0.25 0.25 0.25 0.25 0.25 0.25 0.25 0.25 0.25 0.25 0.25 0.25 0.25 0.25 0.25 0.25 0.25 0.25 0.25 0.25 0.25 0.25 0.25 0.25 0.25 0.25 0.25 0.25 0.25 0.25 0.25 0.25 0.25 
0.375 0.375 0.375 0.375 0.375 0.375 0.375 0.375 0.375 0.375 0.375 0.375 0.375 0.375 0.375 0.375 0.375 0.375 0.375 0.375 0.375 0.375 0.375 0.375 0.375 0.375 0.375 0.375 0.375 0.375 0.375 0.375 0.375 0.375 0.375 0.375 0.375 0.375 0.375 0.375 
0.5 0.5 0.5 0.5 0.5 0.5 0.5 0.5 0.5 0.5 0.5 0.5 0.5 0.5 0.5 0.5 0.5 0.5 0.5 0.5 0.5 0.5 0.5 0.5 0.5 0.5 0.5 0.5 0.5 0.5 0.5 0.5 0.5 0.5 0.5 0.5 0.5 0.5 0.5 0.5 
0.625 0.625 0.625 0.625 0.625 0.625 0.625 0.625 0.625 0.625 0.625 0.625 0.625 0.625 0.625 0.625 0.625 0.625 0.625 0.625 0.625 0.625 0.625 0.625 0.625 0.625 0.625 0.625 0.625 0.625 0.625 0.625 0.625 0.625 0.625 0.625 0.625 0.625 0.625 0.625 
0.75 0.75 0.75 0.75 0.75 0.75 0.75 0.75 0.75 0.75 0.75 0.75 0.75 0.75 0.75 0.75 0.75 0.75 0.75 0.75 0.75 0.75 0.75 0.75 0.75 0.75 0.75 0.75 0.75 0.75 0.75 0.75 0.75 0.75 0.75 0.75 0.75 0.75 0.75 0.75 
0.875 0.875 0.875 0.875 0.875 0.875 0.875 0.875 0.875 0.875 0.875 0.875 0.875 0.875 0.875 0.875 0.875 0.875 0.875 0.875 0.875 0.875 0.875 0.875 0.875 0.875 0.875 0.875 0.875 0.875 0.875 0.875 0.875 0.875 0.875 0.875 0.875 0.875 0.875 0.875 
1 1 1 1 1 1 1 1 1 1 1 1 1 1 1 1 1 1 1 1 1 1 1 1 1 1 1 1 1 1 1 1 1 1 1 1 1 1 1 1 
